TCS_Benchmarks/redos_fix/corpus3_output_distinct_3496_3495_1_0.txt
([^&\s()]|&amp;)+([^&\s()]|&quot;)+
([^&\s()]|&amp;)+
&.*